
        $ From http://www.csplib.org/Problems/prob009/data/helmut.pdf
        $ Problem number 100
        $ Sequence length : 25
        language ESSENCE' 1.0
        letting sizemaster be 340
        letting sizes be sequence(1,4,5,6,11,13,16,17,22,24,44,46,50,51,52,53,61,64,66,79,84,85,92,169,171)
        